RT is False
Default write of storage_offers_DA.csv just to have a file (but constraint should be inactive)
Reading model...
...model read.
creating competitive generators file...
...competitive generators recorded.
Loading data...
.. day-ahead data with real-time VRE data read.
Compiling instance...
...instance created.
Creating Offer Mitigation (model will solve as dispatch if TRUE)...
Solving...

Welcome to IBM(R) ILOG(R) CPLEX(R) Interactive Optimizer 12.9.0.0
  with Simplex, Mixed Integer & Barrier Optimizers
5725-A06 5725-A29 5724-Y48 5724-Y49 5724-Y54 5724-Y55 5655-Y21
Copyright IBM Corp. 1988, 2019.  All Rights Reserved.

Type 'help' for a list of available commands.
Type 'help' followed by a command name for more
information on commands.

CPLEX> Logfile 'cplex.log' closed.
Logfile 'C:\Users\Luke\Desktop\test919\logs\tmpke_82fqq.cplex.log' open.
CPLEX> New value for parallel optimization mode: -1
CPLEX> New value for mixed integer optimality gap tolerance: 0.01
CPLEX> New value for integrality tolerance: 1e-09
CPLEX> New value for feasibility tolerance: 0.01
CPLEX> New value for deterministic time limit in ticks: 75000
CPLEX> Problem 'C:\Users\Luke\Desktop\test919\logs\tmphvob3ckf.pyomo.lp' read.
Read time = 0.05 sec. (3.04 ticks)
CPLEX> Problem name         : C:\Users\Luke\Desktop\test919\logs\tmphvob3ckf.pyomo.lp
Objective sense      : Minimize
Variables            :   26081  [Nneg: 1,  Box: 21616,  Free: 4464]
Objective nonzeros   :    2496
Linear constraints   :   27515  [Less: 14006,  Greater: 4416,  Equal: 9093]
  Nonzeros           :   89219
  RHS nonzeros       :   12271

Variables            : Min LB: -5000.000        Max UB: 1000000.       
Objective nonzeros   : Min   : 15.73158         Max   : 124.0997       
Linear constraints   :
  Nonzeros           : Min   : 0.8500000        Max   : 3000.000       
  RHS nonzeros       : Min   : 0.1750000        Max   : 5000.000       
CPLEX> CPXPARAM_Parallel                                -1
CPXPARAM_Simplex_Tolerances_Feasibility          0.01
CPXPARAM_DetTimeLimit                            75000
CPXPARAM_MIP_Tolerances_MIPGap                   0.01
CPXPARAM_MIP_Tolerances_Integrality              1.0000000000000001e-09
Parallel mode: opportunistic, using up to 12 threads for concurrent optimization.
Tried aggregator 1 time.
LP Presolve eliminated 21377 rows and 15487 columns.
Aggregator did 749 substitutions.
Reduced LP has 5389 rows, 9845 columns, and 31782 nonzeros.
Presolve time = 0.05 sec. (30.20 ticks)
Symmetry aggregator did 5563 additional substitutions.

Iteration log . . .
Iteration:     1   Dual objective     =             0.000000
Perturbation started.
Iteration:   101   Dual objective     =             0.000000
Iteration:   333   Dual objective     =             1.365687
Iteration:   607   Dual objective     =             1.951336
Iteration:   865   Dual objective     =             2.091665
Iteration:  1056   Dual objective     =             2.202485
Iteration:  1335   Dual objective     =             2.257901
Iteration:  1588   Dual objective     =             2.289182
Iteration:  1808   Dual objective     =         43322.656966
Iteration:  2023   Dual objective     =        159395.546170
Iteration:  2223   Dual objective     =        239865.257450
Iteration:  2431   Dual objective     =        243954.700303
Iteration:  2743   Dual objective     =        247598.233548
Removing perturbation.

Dual crossover.
  Dual:  Fixing 7 variables.
Using devex.

Primal simplex solved model.


Primal simplex - Optimal:  Objective =  2.4814788596e+05
Solution time =    0.11 sec.  Iterations = 1833 (1081)
Deterministic time = 82.10 ticks  (753.25 ticks/sec)

CPLEX> Solution written to file 'C:\Users\Luke\Desktop\test919\logs\tmpxh3xdayk.cplex.sol'.
CPLEX> Exporting results... 
...storage offer mitigation file created
Converting model to MPEC...
...converted
NOTE: initial MIP solve with only storage competitive to get feasible solution
Solving...

Welcome to IBM(R) ILOG(R) CPLEX(R) Interactive Optimizer 12.9.0.0
  with Simplex, Mixed Integer & Barrier Optimizers
5725-A06 5725-A29 5724-Y48 5724-Y49 5724-Y54 5724-Y55 5655-Y21
Copyright IBM Corp. 1988, 2019.  All Rights Reserved.

Type 'help' for a list of available commands.
Type 'help' followed by a command name for more
information on commands.

CPLEX> Logfile 'cplex.log' closed.
Logfile 'C:\Users\Luke\Desktop\test919\logs\tmpha8f_qzm.cplex.log' open.
CPLEX> New value for parallel optimization mode: -1
CPLEX> New value for mixed integer optimality gap tolerance: 0.01
CPLEX> New value for integrality tolerance: 1e-09
CPLEX> New value for feasibility tolerance: 0.01
CPLEX> New value for deterministic time limit in ticks: 75000
CPLEX> Problem 'C:\Users\Luke\Desktop\test919\logs\tmpeclm0kp7.pyomo.lp' read.
Read time = 0.19 sec. (14.78 ticks)
CPLEX> Problem name         : C:\Users\Luke\Desktop\test919\logs\tmpeclm0kp7.pyomo.lp
Objective sense      : Maximize
Variables            :   53805  [Nneg: 1,  Box: 22000,  Free: 4464,
                                 Binary: 27340]
Objective nonzeros   :    9029
Linear constraints   :  123205  [Less: 41346,  Greater: 59096,  Equal: 22763]
  Nonzeros           :  291753
  RHS nonzeros       :   67456

Variables            : Min LB: -5000.000        Max UB: 1000000.       
Objective nonzeros   : Min   : 0.1750000        Max   : 2500.000       
Linear constraints   :
  Nonzeros           : Min   : 0.1750000        Max   : 1000000.       
  RHS nonzeros       : Min   : 0.1750000        Max   : 1000000.       
CPLEX> CPXPARAM_Parallel                                -1
CPXPARAM_Simplex_Tolerances_Feasibility          0.01
CPXPARAM_DetTimeLimit                            75000
CPXPARAM_MIP_Tolerances_MIPGap                   0.01
CPXPARAM_MIP_Tolerances_Integrality              1.0000000000000001e-09
Tried aggregator 3 times.
MIP Presolve eliminated 88728 rows and 19052 columns.
MIP Presolve added 3358 rows and 0 columns.
MIP Presolve modified 24839 coefficients.
Aggregator did 12952 substitutions.
Reduced MIP has 24883 rows, 21245 columns, and 70960 nonzeros.
Reduced MIP has 8390 binaries, 0 generals, 0 SOSs, and 0 indicators.
Presolve time = 0.23 sec. (173.42 ticks)
Probing fixed 391 vars, tightened 2825 bounds.
Probing time = 1.58 sec. (887.27 ticks)
Tried aggregator 2 times.
MIP Presolve eliminated 881 rows and 786 columns.
MIP Presolve modified 2213 coefficients.
Aggregator did 43 substitutions.
Reduced MIP has 23959 rows, 20416 columns, and 68263 nonzeros.
Reduced MIP has 7999 binaries, 0 generals, 0 SOSs, and 0 indicators.
Presolve time = 0.09 sec. (68.96 ticks)
Probing time = 0.05 sec. (15.65 ticks)
Clique table members: 6453.
MIP emphasis: balance optimality and feasibility.
MIP search method: dynamic search.
Parallel mode: opportunistic, using up to 12 threads.
Root relaxation solution time = 0.58 sec. (300.81 ticks)

        Nodes                                         Cuts/
   Node  Left     Objective  IInf  Best Integer    Best Bound    ItCnt     Gap

      0     0      -23.4052   234                    -23.4052       36         
      0     0      -23.4052    14                     Cuts: 8       41         
      0     0      -23.4052    13                 Flowcuts: 3       43         
      0     0      -23.4052    10                 Flowcuts: 1       44         
*     0+    0                          -85.9422      -23.4052            72.77%
      0     2        cutoff            -85.9422      -54.5155       75   36.57%
Elapsed time = 11.78 sec. (5019.08 ticks, tree = 0.02 MB, solutions = 0)
*   151    22      integral     0      -54.5155      -54.5155      248    0.00%

Flow cuts applied:  6
Gomory fractional cuts applied:  4

Root node processing (before b&c):
  Real time             =   11.25 sec. (5005.03 ticks)
Parallel b&c, 12 threads:
  Real time             =    1.30 sec. (370.54 ticks)
  Sync time (average)   =    0.38 sec.
  Wait time (average)   =    0.00 sec.
                          ------------
Total (root+branch&cut) =   12.55 sec. (5375.57 ticks)

Solution pool: 2 solutions saved.

MIP - Integer optimal solution:  Objective = -5.4515452962e+01
Solution time =   12.55 sec.  Iterations = 494  Nodes = 238
Deterministic time = 5375.73 ticks  (428.45 ticks/sec)

CPLEX> Incumbent solution written to file 'C:\Users\Luke\Desktop\test919\logs\tmp42qcqr0e.cplex.sol'.
CPLEX> NOTE: no warmstart specified for MIP iteration, default behavior is true
NOTE: resolving with all competitive generators using storage-only solution to warmstart
Solving...

Welcome to IBM(R) ILOG(R) CPLEX(R) Interactive Optimizer 12.9.0.0
  with Simplex, Mixed Integer & Barrier Optimizers
5725-A06 5725-A29 5724-Y48 5724-Y49 5724-Y54 5724-Y55 5655-Y21
Copyright IBM Corp. 1988, 2019.  All Rights Reserved.

Type 'help' for a list of available commands.
Type 'help' followed by a command name for more
information on commands.

CPLEX> Logfile 'cplex.log' closed.
Logfile 'C:\Users\Luke\Desktop\test919\logs\tmppnalhll9.cplex.log' open.
CPLEX> New value for parallel optimization mode: -1
CPLEX> New value for mixed integer optimality gap tolerance: 0.01
CPLEX> New value for integrality tolerance: 1e-09
CPLEX> New value for feasibility tolerance: 0.01
CPLEX> New value for deterministic time limit in ticks: 75000
CPLEX> Problem 'C:\Users\Luke\Desktop\test919\logs\tmpos1gkr8q.pyomo.lp' read.
Read time = 0.20 sec. (14.81 ticks)
CPLEX> MIP start file 'C:\Users\Luke\Desktop\test919\logs\tmp02rjxoc_.cplex.mst' read.
CPLEX> Problem name         : C:\Users\Luke\Desktop\test919\logs\tmpos1gkr8q.pyomo.lp
Objective sense      : Maximize
Variables            :   54525  [Nneg: 1,  Box: 22720,  Free: 4464,
                                 Binary: 27340]
Objective nonzeros   :    9725
Linear constraints   :  123205  [Less: 41346,  Greater: 59096,  Equal: 22763]
  Nonzeros           :  291753
  RHS nonzeros       :   67456

Variables            : Min LB: -5000.000        Max UB: 1000000.       
Objective nonzeros   : Min   : 0.1750000        Max   : 2500.000       
Linear constraints   :
  Nonzeros           : Min   : 0.1750000        Max   : 1000000.       
  RHS nonzeros       : Min   : 0.1750000        Max   : 1000000.       
CPLEX> CPXPARAM_Parallel                                -1
CPXPARAM_Simplex_Tolerances_Feasibility          0.01
CPXPARAM_DetTimeLimit                            75000
CPXPARAM_MIP_Tolerances_MIPGap                   0.01
CPXPARAM_MIP_Tolerances_Integrality              1.0000000000000001e-09
Warning:  No solution found from 1 MIP starts.
Retaining values of one MIP start for possible repair.
Tried aggregator 3 times.
MIP Presolve eliminated 88728 rows and 19772 columns.
MIP Presolve added 3358 rows and 0 columns.
MIP Presolve modified 24839 coefficients.
Aggregator did 12952 substitutions.
Reduced MIP has 24883 rows, 21245 columns, and 70960 nonzeros.
Reduced MIP has 8390 binaries, 0 generals, 0 SOSs, and 0 indicators.
Presolve time = 0.23 sec. (173.77 ticks)
Probing fixed 391 vars, tightened 2825 bounds.
Probing time = 1.56 sec. (887.27 ticks)
Tried aggregator 2 times.
MIP Presolve eliminated 881 rows and 786 columns.
MIP Presolve modified 2213 coefficients.
Aggregator did 43 substitutions.
Reduced MIP has 23959 rows, 20416 columns, and 68263 nonzeros.
Reduced MIP has 7999 binaries, 0 generals, 0 SOSs, and 0 indicators.
Presolve time = 0.09 sec. (68.97 ticks)
Probing time = 0.05 sec. (15.65 ticks)
Clique table members: 6453.
MIP emphasis: balance optimality and feasibility.
MIP search method: dynamic search.
Parallel mode: opportunistic, using up to 12 threads.
Root relaxation solution time = 0.39 sec. (288.43 ticks)

        Nodes                                         Cuts/
   Node  Left     Objective  IInf  Best Integer    Best Bound    ItCnt     Gap

      0     0    54898.2551  1769                  54898.2551     6691         
      0     0    54509.0884   662                   Cuts: 837     7098         
      0     0    54364.1400   533                   Cuts: 545     7297         
      0     0    54346.5832   441                   Cuts: 322     7447         
      0     0    54346.5832   416                   Cuts: 149     7515         
      0     0    54346.5832   384                   Cuts: 127     7581         
      0     0    54346.5832   368                    Cuts: 84     7627         
      0     0    54346.5832   357                    Cuts: 71     7680         
      0     0    54346.5832   347                    Cuts: 62     7723         
      0     0    54346.5832   329                    Cuts: 71     7767         
      0     0    54346.5832   329                    Cuts: 35     7786         
      0     0    54346.5832   334                    Cuts: 32     7820         
Repair heuristic found nothing.
      0     7    50961.1506   317                 Impl Bds: 2     7902         
Elapsed time = 15.22 sec. (7589.26 ticks, tree = 0.02 MB, solutions = 0)
    136    34    infeasible                        51778.8220     8698         
    277   249    42876.9362   282                  51778.8220    14359         
    516   252    41611.9972   272                  51778.8220    14346         
    676   542    35515.6752   227                  51778.8220    16690         
    937   661    32552.9804   229                  51778.8220    17551         
   1163   823    32365.8517   200                  51778.8220    18004         
   1477  1047    33963.0852   211                  51778.8220    18372         
   1888  1267    32552.9804   209                  51778.8220    18584         
   2397  1707    35705.9797   233                  51778.8220    18683         
*  3028+ 2832                         7692.9885    51778.8220           573.07%
Elapsed time = 26.39 sec. (10143.76 ticks, tree = 23.81 MB, solutions = 6)
*  3218  2433      integral     0    30982.0900    51778.8220    18975   67.13%
*  3226  2686      integral     0    35468.6226    51778.8220    19061   45.98%
   4243   821    42914.4361   283    39879.7948    51737.5999    22591   29.73%

GUB cover cuts applied:  5
Clique cuts applied:  45
Cover cuts applied:  4
Implied bound cuts applied:  84
Flow cuts applied:  993
Mixed integer rounding cuts applied:  105
Gomory fractional cuts applied:  45

Root node processing (before b&c):
  Real time             =   14.77 sec. (7555.41 ticks)
Parallel b&c, 12 threads:
  Real time             =   23.28 sec. (9314.94 ticks)
  Sync time (average)   =    0.16 sec.
  Wait time (average)   =    0.00 sec.
                          ------------
Total (root+branch&cut) =   38.05 sec. (16870.36 ticks)

Solution pool: 6 solutions saved.

MIP - Integer optimal, tolerance (0.01/1e-06):  Objective =  3.9879794791e+04
Current MIP best bound =  4.0242887611e+04 (gap = 363.093, 0.91%)
Solution time =   38.05 sec.  Iterations = 32656  Nodes = 4262 (1241)
Deterministic time = 16870.51 ticks  (443.41 ticks/sec)

CPLEX> Incumbent solution written to file 'C:\Users\Luke\Desktop\test919\logs\tmprt3fbnvn.cplex.sol'.
CPLEX> Exporting results... 
